(set-info :smt-lib-version 2.6)
(set-logic QF_UFLRA)
(set-info :source |
MathSat group

|)
(set-info :category "random")
(set-info :status sat)
(declare-fun x0 () Real)
(declare-fun x1 () Real)
(declare-fun x2 () Real)
(declare-fun x3 () Real)
(declare-fun x4 () Real)
(declare-fun x5 () Real)
(declare-fun x6 () Real)
(declare-fun x7 () Real)
(declare-fun x8 () Real)
(declare-fun x9 () Real)
(declare-fun x10 () Real)
(declare-fun x11 () Real)
(declare-fun x12 () Real)
(declare-fun x13 () Real)
(declare-fun x14 () Real)
(declare-fun x15 () Real)
(declare-fun x16 () Real)
(declare-fun x17 () Real)
(declare-fun x18 () Real)
(declare-fun x19 () Real)
(declare-fun x20 () Real)
(declare-fun x21 () Real)
(declare-fun x22 () Real)
(declare-fun x23 () Real)
(declare-fun x24 () Real)
(declare-fun x25 () Real)
(declare-fun x26 () Real)
(declare-fun x27 () Real)
(declare-fun x28 () Real)
(declare-fun x29 () Real)
(declare-fun x30 () Real)
(declare-fun x31 () Real)
(declare-fun x32 () Real)
(declare-fun x33 () Real)
(declare-fun x34 () Real)
(declare-fun x35 () Real)
(declare-fun x36 () Real)
(declare-fun x37 () Real)
(declare-fun x38 () Real)
(declare-fun x39 () Real)
(declare-fun f0_1 (Real) Real)
(declare-fun f0_2 (Real Real) Real)
(declare-fun f0_3 (Real Real Real) Real)
(declare-fun f0_4 (Real Real Real Real) Real)
(declare-fun P0 () Bool)
(declare-fun P1 () Bool)
(declare-fun P2 () Bool)
(declare-fun P3 () Bool)
(declare-fun P4 () Bool)
(declare-fun P5 () Bool)
(declare-fun P6 () Bool)
(declare-fun P7 () Bool)
(declare-fun P8 () Bool)
(declare-fun P9 () Bool)
(declare-fun P10 () Bool)
(declare-fun P11 () Bool)
(declare-fun P12 () Bool)
(declare-fun P13 () Bool)
(declare-fun P14 () Bool)
(declare-fun P15 () Bool)
(declare-fun P16 () Bool)
(declare-fun P17 () Bool)
(declare-fun P18 () Bool)
(declare-fun P19 () Bool)
(declare-fun P20 () Bool)
(declare-fun P21 () Bool)
(declare-fun P22 () Bool)
(declare-fun P23 () Bool)
(declare-fun P24 () Bool)
(declare-fun P25 () Bool)
(declare-fun P26 () Bool)
(declare-fun P27 () Bool)
(declare-fun P28 () Bool)
(declare-fun P29 () Bool)
(declare-fun P30 () Bool)
(declare-fun P31 () Bool)
(declare-fun P32 () Bool)
(declare-fun P33 () Bool)
(declare-fun P34 () Bool)
(declare-fun P35 () Bool)
(declare-fun P36 () Bool)
(declare-fun P37 () Bool)
(declare-fun P38 () Bool)
(declare-fun P39 () Bool)
(assert (let ((?v_45 (* 10 x18)) (?v_36 (<= (- (- (* 17 x29) (* 36 x35)) (* 4 x11)) 3)) (?v_10 (<= (- (+ (* 52 x20) (* 18 x32)) (* 25 x14)) 17)) (?v_95 (<= (+ (- (* 22 x14) (* 57 x27)) (* 17 x32)) 34)) (?v_127 (<= (- (+ (* 56 x1) (* 14 x34)) (* 40 x38)) 23)) (?v_111 (distinct (f0_2 x26 x7) (f0_2 x34 x5))) (?v_32 (= (f0_2 x9 x2) (f0_1 x1))) (?v_88 (= (f0_1 x6) (f0_1 x25))) (?v_166 (distinct x23 (f0_1 x8))) (?v_90 (= x36 (f0_1 x19))) (?v_76 (= x12 x37)) (?v_39 (distinct (f0_1 x12) x27)) (?v_177 (= x33 (f0_2 x23 x18))) (?v_53 (distinct (f0_2 x23 x20) (f0_1 x15))) (?v_200 (= (f0_2 x27 x32) x33)) (?v_184 (= x15 (f0_2 x19 x18))) (?v_0 (f0_1 x3))) (let ((?v_122 (= x33 ?v_0)) (?v_67 (distinct x18 ?v_0)) (?v_40 (distinct (f0_2 x29 x32) x33)) (?v_83 (f0_1 x2)) (?v_84 (f0_1 x37))) (let ((?v_126 (distinct ?v_83 ?v_84)) (?v_119 (distinct (f0_1 x0) x31)) (?v_115 (= (f0_1 x33) (f0_1 x34))) (?v_19 (= (f0_2 x11 x11) (f0_2 x18 x0))) (?v_98 (distinct (f0_2 x8 x33) (f0_1 x18))) (?v_33 (distinct (f0_2 x36 x8) x20)) (?v_4 (distinct ?v_0 ?v_84)) (?v_155 (distinct (f0_1 x5) ?v_84)) (?v_151 (= (f0_2 x35 x17) (f0_2 x22 x30))) (?v_12 (= (f0_2 x23 x33) (f0_1 x24))) (?v_13 (distinct (f0_2 x32 x23) (f0_2 x25 x9))) (?v_55 (distinct (f0_2 x12 x37) (f0_1 x20))) (?v_136 (= x26 x29)) (?v_75 (distinct (f0_2 x28 x6) x5)) (?v_18 (f0_1 x7))) (let ((?v_183 (distinct x11 ?v_18)) (?v_6 (distinct (f0_2 x23 x26) (f0_2 x6 x5))) (?v_152 (distinct ?v_18 (f0_2 x37 x37))) (?v_117 (= (f0_2 x9 x30) x14)) (?v_113 (distinct (f0_1 x36) (f0_2 x30 x1))) (?v_41 (distinct (f0_1 x4) (f0_2 x18 x15))) (?v_121 (distinct x33 ?v_83)) (?v_61 (distinct (f0_2 x21 x27) x22)) (?v_54 (= x29 (f0_2 x7 x32))) (?v_70 (= (f0_2 x18 x6) x25)) (?v_28 (distinct x2 (f0_1 x27))) (?v_85 (= ?v_18 (f0_1 x21))) (?v_114 (not ?v_32)) (?v_5 (not ?v_151))) (let ((?v_173 (not ?v_121)) (?v_26 (not ?v_12)) (?v_7 (not P8)) (?v_23 (not ?v_13)) (?v_15 (not ?v_6)) (?v_14 (not ?v_184)) (?v_94 (not ?v_4)) (?v_31 (not ?v_54)) (?v_9 (not ?v_28)) (?v_170 (not P12)) (?v_161 (not P33)) (?v_147 (not ?v_67)) (?v_52 (not P20)) (?v_43 (not P13)) (?v_8 (not P25)) (?v_21 (not P24)) (?v_181 (not P16)) (?v_11 (not P39)) (?v_82 (not P4)) (?v_205 (not ?v_122)) (?v_89 (not P7)) (?v_144 (not P37)) (?v_29 (not ?v_85)) (?v_35 (not P14)) (?v_188 (not ?v_10)) (?v_30 (not ?v_76)) (?v_48 (not P3)) (?v_198 (not P36)) (?v_187 (not P30)) (?v_148 (not ?v_88)) (?v_81 (not P35)) (?v_159 (not P34)) (?v_140 (not ?v_33)) (?v_57 (not ?v_40)) (?v_163 (not ?v_41)) (?v_123 (not P10)) (?v_134 (not ?v_36)) (?v_38 (not P27)) (?v_49 (not P5)) (?v_108 (not ?v_39)) (?v_165 (not P26)) (?v_44 (not ?v_55)) (?v_92 (not P21)) (?v_74 (not ?v_136)) (?v_60 (not ?v_70)) (?v_86 (not ?v_111)) (?v_106 (not ?v_61)) (?v_162 (not P32)) (?v_171 (not P17)) (?v_79 (not P19)) (?v_178 (not P23)) (?v_104 (not ?v_75)) (?v_139 (not P1)) (?v_99 (not P2)) (?v_135 (not ?v_126)) (?v_105 (not ?v_115)) (?v_141 (not ?v_119)) (?v_107 (not ?v_90)) (?v_149 (not P38)) (?v_189 (not ?v_95)) (?v_109 (not P31)) (?v_190 (not ?v_117)) (?v_175 (not P9)) (?v_120 (not P11)) (?v_130 (not P29)) (?v_137 (not P6))) (let ((?v_179 (or P35 ?v_130)) (?v_174 (or ?v_107 ?v_136)) (?v_157 (not P28)) (?v_169 (not ?v_166)) (?v_160 (not ?v_98)) (?v_185 (not ?v_183)) (?v_180 (not P0)) (?v_193 (not ?v_113)) (?v_167 (not ?v_19)) (?v_192 (not P15)) (?v_191 (not ?v_200)) (?v_186 (not ?v_177)) (?v_182 (not P22)) (?v_196 (not ?v_127)) (?v_197 (not P18)) (?v_199 (not ?v_53)) (?v_201 (not ?v_152)) (?v_2 (distinct (+ (- 0 (* 43 x2)) (* 52 x15)) 27)) (?v_124 (< (+ (* 17 x1) (* 38 x26) (* 55 x30)) 0))) (let ((?v_93 (not ?v_124)) (?v_59 (<= (+ (* 39 x37) (* 43 x31) (* 31 x17)) 14)) (?v_69 (< (+ (* 14 x9) (* 37 x27) (* 39 x22)) 42))) (let ((?v_77 (not ?v_69)) (?v_164 (< (+ (- 0 (* 23 x11)) (* 50 x15)) 43))) (let ((?v_194 (not ?v_164)) (?v_66 (not ?v_2)) (?v_150 (not ?v_59)) (?v_42 (<= (- (- (* (- 38) x22) (* 26 x25)) (* 28 x28)) (- 18))) (?v_87 (distinct (+ (* 47 x26) (* 18 x29) (* 47 x19)) (- 3))) (?v_71 (distinct (- (- 0 (* 11 x24)) (* 44 x3)) (- 18))) (?v_47 (<= (- (+ (* (- 26) x28) (* 17 x14)) (* 10 x4)) (- 9)))) (let ((?v_22 (not ?v_47)) (?v_1 (< (- (+ (* 53 x30) (* 40 x3)) (* 37 x20)) (- 26)))) (let ((?v_154 (not ?v_1)) (?v_3 (distinct (- (+ (* (- 48) x13) (* 48 x18)) (* 21 x37)) 35)) (?v_24 (distinct (- (- (* (- 21) x8) ?v_45) (* 50 x8)) (- 11)))) (let ((?v_20 (not ?v_24)) (?v_51 (not ?v_3)) (?v_50 (<= (- (+ (* (- 3) x32) (* 16 x36)) (* 52 x25)) 49)) (?v_65 (< (- (- (* (- 3) x20) (* 41 x10)) (* 16 x34)) 47)) (?v_100 (<= (+ (* (- 5) x38) (* 44 x8) (* 15 x24)) 59))) (let ((?v_16 (not ?v_100)) (?v_112 (<= (- (+ (* (- 13) x1) (* 16 x13)) (* 24 x11)) 55))) (let ((?v_37 (not ?v_112)) (?v_17 (<= (- (+ (* (- 2) x13) (* 57 x16)) (* 4 x38)) (- 32))) (?v_97 (< (+ (* 43 x3) (* 35 x14) (* 56 x38)) (- 8))) (?v_143 (<= (- (- (* (- 16) x10) (* 17 x33)) (* 44 x25)) (- 38)))) (let ((?v_46 (not ?v_143)) (?v_103 (<= (+ (* 22 x30) (* 47 x25)) (- 59)))) (let ((?v_27 (not ?v_103)) (?v_118 (<= (+ (- (* (- 57) x38) (* 55 x26)) (* 34 x30)) 10))) (let ((?v_102 (not ?v_118)) (?v_25 (<= (+ (- (* (- 18) x24) (* 26 x13)) (* 40 x20)) 28)) (?v_34 (< (- (- (* 8 x30) (* 35 x1)) (* 11 x10)) (- 33)))) (let ((?v_72 (not ?v_34)) (?v_110 (not ?v_25)) (?v_62 (= (- (+ (* (- 53) x8) (* 51 x11)) (* 15 x36)) (- 43))) (?v_56 (= (- (+ (* (- 32) x23) (* 29 x36)) (* 29 x28)) 49)) (?v_158 (= (+ (* (- 21) x4) (* 12 x31) (* 28 x34)) (- 25)))) (let ((?v_58 (not ?v_158)) (?v_63 (< (- (- (* (- 46) x12) (* 2 x33)) (* 56 x35)) (- 35))) (?v_101 (distinct (- (+ (* (- 43) x11) (* 6 x12)) (* 44 x20)) 48)) (?v_202 (< (- (+ ?v_45 (* 55 x24)) 0) (- 44)))) (let ((?v_128 (not ?v_202)) (?v_168 (not ?v_42)) (?v_68 (not ?v_50)) (?v_78 (= (- (- (* 10 x5) (* 26 x19)) (* 33 x26)) (- 29)))) (let ((?v_91 (not ?v_78)) (?v_138 (not ?v_56)) (?v_80 (< (- (+ (* 19 x7) (* 46 x14)) (* 51 x20)) (- 38)))) (let ((?v_64 (not ?v_80)) (?v_172 (not ?v_63)) (?v_142 (not ?v_65)) (?v_146 (< (+ (* (- 41) x6) (* 38 x18) (* 17 x27)) (- 17)))) (let ((?v_116 (not ?v_146)) (?v_73 (not ?v_71)) (?v_132 (<= (+ (* (- 21) x5) (* 27 x23) (* 19 x26)) (- 41))) (?v_96 (< (+ (- (* (- 43) x1) (* 34 x7)) (* 4 x1)) 31))) (let ((?v_145 (not ?v_96)) (?v_153 (not ?v_87)) (?v_133 (not ?v_97)) (?v_125 (not ?v_62)) (?v_131 (< (- (- (* 54 x29) (* 34 x3)) (* 30 x29)) (- 38))) (?v_129 (<= (- (- 0 (* 17 x7)) (* 6 x31)) (- 52)))) (let ((?v_156 (not ?v_129)) (?v_176 (or ?v_71 ?v_48)) (?v_206 (not ?v_132)) (?v_195 (not ?v_131)) (?v_203 (not ?v_101)) (?v_204 (not ?v_17))) (and (and (and (and (and (and (and (and (and (and (and (and (and (and (and (and (and (and (and (and (and (and (and (and (and (and (and (and (and (and (and (and (and (and (and (and (and (and (and (and (and (and (and (and (and (and (and (and (and (and (and (and (and (and (and (and (and (and (and (and (and (and (and (and (and (and (and (and (and (and (and (and (and (and (and (and (and (and (and (and (and (and (and (and (and (and (and (and (and (and (and (and (and (and (and (and (and (and (and (and (and (and (and (and (and (and (and (and (and (and (and (and (and (and (and (and (and (and (and (and (and (and (and (and (and (and (and (and (and (and (and (and (and (and (and (and (and (and (and (and (and (and (and (and (and (and (and (and (and (and (and (and (and (and (and (and (and (and (and (and (and (and (and (and (and (and (and (and (and (and (and (and (and (and (and (and (and (and (and (and (and (and (and (and (and (and (and (and (and (and (and (and (and (and (and (and (and (and (and (and (and (and (and (and (and (and (and (and (and (and (and (and (and (and (and (and (and (and (and (and (and (and (and (and (and (and (and (and (and (and (and (and (and (and (and (and (and (and (and (and (and (and (and (and (and (and (and (and (and (and (and (and (and (and (and (and (and (and (and (and (and (and (and (and (and (and (and (and (and (and (and (and (and (and (and (and (and (and (and (and (and (and (and (and (and (and (and (and (and (and (and (and (and (and (and (and (and (and (and (and (and (and (and (and (and (and (and (and (and (and (and (and (and (and (and (and (and (and (and (and (and (and (and (and (and (and (and (and (and (and (and (and (and (and (and (and (and (and (and (and (and (and (and (and (and (and (and (and (and (and (and (and (and (and (and (and (and (and (and (and (and (and (and (and (and (and (and (and (and (and (and (and (and (and (and (and (and (and (and (and (and (and (and (and (and (and (and (and (and (and (and (and (and (and (and (and (and (and (and (and (and (and (and (and (and (and (and (and (and (and (and (and (and (and (and (and (and (and (and (and (and (and (and (and (and (and (and (and (and (and (and (and (and (and (and (and (and (and (and (and (and (and (and (and (and (and (and (and (and (and (and (and (and (and (and (and (and (and (and (and (and (and (and (and (and (and (and (and (and (and (and (and (and (and (and (and (and (and (and (or (or ?v_114 P19) ?v_5) (or (or P24 ?v_42) ?v_173)) (or (or ?v_87 ?v_26) ?v_2)) (or (or P7 ?v_93) ?v_7)) (or (or ?v_71 ?v_23) ?v_15)) (or (or ?v_14 ?v_94) ?v_31)) (or (or ?v_9 ?v_170) ?v_161)) (or (or ?v_75 ?v_147) ?v_22)) (or (or P37 ?v_52) ?v_154)) (or (or ?v_3 ?v_20) ?v_59)) (or (or ?v_1 P15) P28)) (or (or ?v_2 ?v_51) ?v_152)) (or (or ?v_19 ?v_4) ?v_77)) (or (or ?v_36 ?v_50) ?v_5)) (or (or P10 ?v_65) ?v_10)) (or (or ?v_6 ?v_4) ?v_16)) (or (or P0 P10) ?v_43)) (or (or ?v_8 ?v_21) ?v_7)) (or (or ?v_37 ?v_8) ?v_61)) (or (or ?v_9 ?v_181) ?v_10)) (or (or ?v_11 ?v_5) ?v_82)) (or (or ?v_205 ?v_89) ?v_11)) (or (or ?v_17 ?v_12) ?v_13)) (or (or ?v_144 ?v_39) ?v_14)) (or (or ?v_194 ?v_15) ?v_16)) (or (or ?v_33 P18) ?v_17)) (or (or ?v_29 ?v_35) ?v_19)) (or (or ?v_20 ?v_15) ?v_188)) (or (or ?v_21 P6) ?v_20)) (or (or ?v_97 ?v_30) P14)) (or (or ?v_53 P22) ?v_48)) (or (or ?v_22 ?v_198) ?v_19)) (or (or ?v_23 P12) ?v_22)) (or (or ?v_187 ?v_14) ?v_95)) (or (or ?v_24 ?v_46) ?v_27)) (or (or ?v_148 ?v_102) ?v_25)) (or (or ?v_7 P18) ?v_72)) (or (or ?v_110 ?v_26) ?v_62)) (or (or ?v_81 ?v_27) ?v_28)) (or (or ?v_29 ?v_30) ?v_24)) (or (or ?v_31 ?v_159) ?v_14)) (or (or ?v_32 ?v_140) ?v_56)) (or (or ?v_57 ?v_34) ?v_35)) (or (or ?v_163 ?v_127) ?v_123)) (or (or P28 ?v_134) ?v_7)) (or (or ?v_38 ?v_49) ?v_37)) (or (or ?v_38 ?v_19) ?v_108)) (or (or ?v_40 ?v_165) ?v_66)) (or (or ?v_41 ?v_44) ?v_58)) (or (or ?v_28 ?v_4) ?v_42)) (or (or ?v_92 ?v_74) ?v_63)) (or (or ?v_43 ?v_44) ?v_101)) (or (or ?v_128 ?v_20) ?v_39)) (or (or P18 ?v_46) ?v_168)) (or (or ?v_47 ?v_8) P8)) (or (or ?v_48 ?v_32) ?v_49)) (or (or ?v_68 ?v_51) ?v_26)) (or (or ?v_60 ?v_52) ?v_53)) (or (or P12 ?v_54) ?v_55)) (or (or ?v_56 ?v_91) ?v_57)) (or (or P39 ?v_58) ?v_150)) (or (or ?v_49 ?v_60) ?v_50)) (or (or P23 P28) ?v_86)) (or (or ?v_138 P10) P27)) (or (or ?v_64 ?v_106) ?v_62)) (or (or ?v_172 ?v_64) ?v_142)) (or (or ?v_66 ?v_67) ?v_68)) (or (or P9 ?v_31) P21)) (or (or ?v_34 ?v_116) ?v_69)) (or (or P24 ?v_70) P15)) (or (or P29 ?v_73) ?v_132)) (or (or ?v_22 P7) ?v_162)) (or (or ?v_72 ?v_24) ?v_90)) (or (or ?v_145 ?v_69) ?v_53)) (or (or ?v_171 ?v_79) ?v_178)) (or (or P34 ?v_3) ?v_66)) (or (or P9 ?v_73) ?v_74)) (or (or ?v_1 ?v_28) P37)) (or (or P7 ?v_54) ?v_75)) (or (or ?v_104 ?v_139) P39)) (or (or ?v_49 ?v_17) ?v_76)) (or (or ?v_77 ?v_99) P14)) (or (or P10 ?v_22) P31)) (or (or ?v_78 ?v_79) ?v_31)) (or (or ?v_49 ?v_10) ?v_80)) (or (or P33 ?v_81) ?v_82)) (or (or ?v_42 ?v_135) ?v_3)) (or (or ?v_85 ?v_2) P21)) (or (or ?v_86 ?v_153) ?v_39)) (or (or P28 ?v_46) P3)) (or (or ?v_64 P25) ?v_105)) (or (or ?v_98 ?v_80) ?v_13)) (or (or ?v_7 ?v_88) ?v_141)) (or (or P24 ?v_89) ?v_107)) (or (or ?v_91 ?v_92) ?v_113)) (or (or ?v_93 ?v_94) ?v_149)) (or (or ?v_189 ?v_42) ?v_96)) (or (or ?v_36 ?v_133) ?v_53)) (or (or ?v_21 ?v_98) ?v_99)) (or (or ?v_100 ?v_23) ?v_101)) (or (or ?v_125 ?v_109) ?v_70)) (or (or P38 ?v_102) ?v_60)) (or (or P36 ?v_43) ?v_103)) (or (or ?v_104 ?v_105) ?v_131)) (or (or P3 ?v_19) ?v_106)) (or (or ?v_58 ?v_17) ?v_8)) (or (or ?v_107 ?v_8) ?v_108)) (or (or P12 ?v_38) ?v_109)) (or (or ?v_37 ?v_26) ?v_20)) (or (or ?v_47 ?v_102) ?v_76)) (or (or ?v_110 ?v_17) P2)) (or (or P37 ?v_111) ?v_103)) (or (or P37 ?v_9) ?v_17)) (or (or ?v_112 P17) ?v_74)) (or (or ?v_190 ?v_113) ?v_63)) (or (or P8 ?v_114) ?v_37)) (or (or ?v_115 P2) ?v_116)) (or (or ?v_117 ?v_118) ?v_175)) (or (or ?v_119 ?v_120) ?v_103)) (or (or ?v_130 ?v_120) ?v_121)) (or (or ?v_122 ?v_123) ?v_137)) (or (or ?v_93 ?v_55) ?v_118)) (or (or ?v_124 (not ?v_155)) ?v_39)) (or (or ?v_120 ?v_47) P35)) (or (or ?v_74 ?v_60) ?v_61)) (or (or ?v_21 ?v_11) P36)) (or (or P26 P3) P1)) (or (or ?v_99 P27) ?v_117)) (or (or ?v_93 ?v_75) ?v_53)) (or (or ?v_156 ?v_51) ?v_16)) (or (or ?v_108 P38) ?v_11)) (or (or P19 ?v_125) ?v_1)) (or (or ?v_56 ?v_33) ?v_126)) (or (or ?v_127 ?v_96) ?v_114)) (or (or ?v_51 ?v_27) ?v_128)) (or (or ?v_28 ?v_106) ?v_64)) (or (or ?v_91 ?v_1) ?v_129)) (or ?v_179 ?v_9)) (or (or P10 ?v_131) P1)) (or (or ?v_114 ?v_132) ?v_72)) (or (or ?v_133 ?v_5) ?v_44)) (or (or ?v_73 ?v_82) P12)) (or (or ?v_58 ?v_134) ?v_10)) (or (or P9 ?v_102) ?v_112)) (or (or P7 ?v_9) ?v_94)) (or (or ?v_135 P16) P19)) (or (or P14 ?v_120) ?v_126)) (or (or ?v_129 ?v_3) ?v_19)) (or ?v_174 ?v_67)) (or (or ?v_73 ?v_44) ?v_137)) (or (or ?v_50 ?v_73) ?v_80)) (or (or ?v_98 ?v_110) ?v_66)) (or (or ?v_157 ?v_61) ?v_138)) (or (or ?v_65 ?v_31) ?v_75)) (or (or ?v_169 ?v_119) P5)) (or (or ?v_135 ?v_26) ?v_89)) (or (or ?v_71 ?v_14) ?v_48)) (or (or ?v_73 ?v_139) ?v_28)) (or (or ?v_140 ?v_141) ?v_30)) (or (or P33 ?v_17) P15)) (or (or P37 ?v_58) ?v_31)) (or (or ?v_142 ?v_143) ?v_109)) (or (or ?v_104 ?v_119) P23)) (or (or ?v_142 ?v_131) ?v_58)) (or ?v_176 P10)) (or (or P16 ?v_120) ?v_37)) (or (or P10 ?v_144) ?v_43)) (or (or ?v_145 ?v_146) ?v_147)) (or (or ?v_67 ?v_8) ?v_11)) (or (or ?v_148 ?v_149) ?v_78)) (or (or ?v_160 ?v_56) ?v_107)) (or (or ?v_150 ?v_80) ?v_123)) (or (or ?v_53 P23) ?v_42)) (or (or ?v_98 P7) ?v_108)) (or (or ?v_128 ?v_102) ?v_129)) (or (or ?v_151 P10) ?v_6)) (or (or ?v_113 ?v_117) ?v_36)) (or (or ?v_137 ?v_152) ?v_87)) (or (or ?v_44 ?v_8) ?v_29)) (or (or ?v_135 ?v_121) ?v_123)) (or (or ?v_153 ?v_116) ?v_62)) (or (or ?v_91 ?v_51) ?v_63)) (or (or P3 P9) P33)) (or (or ?v_108 ?v_99) ?v_154)) (or (or ?v_155 ?v_48) ?v_11)) (or (or ?v_138 ?v_73) ?v_156)) (or (or ?v_150 ?v_74) ?v_105)) (or (or ?v_58 ?v_147) P37)) (or (or P16 ?v_1) ?v_109)) (or (or ?v_157 ?v_158) ?v_124)) (or (or ?v_185 ?v_62) ?v_157)) (or (or P20 ?v_6) ?v_61)) (or (or ?v_98 ?v_134) ?v_1)) (or (or ?v_130 P2) ?v_159)) (or (or P16 ?v_110) ?v_57)) (or (or ?v_180 P5) ?v_160)) (or (or ?v_161 ?v_160) ?v_156)) (or (or ?v_7 P23) ?v_162)) (or (or ?v_163 ?v_91) ?v_4)) (or (or ?v_28 ?v_193) ?v_75)) (or (or ?v_140 P12) ?v_96)) (or (or ?v_20 ?v_167) ?v_101)) (or (or ?v_161 ?v_163) P22)) (or (or ?v_164 ?v_48) ?v_127)) (or (or ?v_150 ?v_110) ?v_143)) (or (or ?v_159 ?v_67) P8)) (or (or ?v_132 P29) P19)) (or (or ?v_165 ?v_166) P2)) (or (or ?v_19 ?v_167) ?v_20)) (or (or ?v_7 ?v_82) ?v_168)) (or (or ?v_169 ?v_61) ?v_23)) (or (or ?v_73 P3) ?v_170)) (or (or ?v_152 ?v_113) ?v_171)) (or (or P0 ?v_29) P16)) (or (or P21 ?v_206) ?v_46)) (or (or ?v_132 ?v_140) ?v_65)) (or (or P36 ?v_104) P2)) (or (or P31 ?v_172) ?v_133)) (or (or ?v_173 P29) ?v_27)) (or (or ?v_177 P14) ?v_42)) (or (or ?v_157 ?v_192) ?v_191)) (or (or ?v_76 ?v_60) ?v_62)) (or (or ?v_1 P27) ?v_99)) (or (or ?v_75 ?v_107) ?v_114)) (or (or ?v_73 P22) ?v_38)) (or (or P7 ?v_172) ?v_51)) (or (or ?v_9 ?v_168) ?v_46)) (or ?v_174 ?v_13)) (or (or ?v_94 ?v_175) ?v_85)) (or ?v_176 ?v_124)) (or (or P38 ?v_71) ?v_177)) (or (or ?v_69 ?v_6) P22)) (or (or ?v_118 ?v_94) ?v_114)) (or (or P36 P5) ?v_32)) (or (or P4 ?v_32) ?v_98)) (or (or P27 ?v_68) ?v_112)) (or (or ?v_178 P2) ?v_16)) (or (or ?v_130 ?v_58) ?v_114)) (or (or ?v_37 ?v_136) ?v_146)) (or (or ?v_156 ?v_68) ?v_23)) (or (or ?v_68 ?v_97) ?v_12)) (or (or ?v_36 ?v_22) ?v_186)) (or (or ?v_99 ?v_126) ?v_131)) (or (or ?v_90 ?v_146) ?v_27)) (or (or P37 ?v_56) ?v_37)) (or (or ?v_178 ?v_138) ?v_153)) (or ?v_179 P18)) (or (or P33 ?v_39) ?v_3)) (or (or P33 ?v_147) ?v_120)) (or (or ?v_180 P8) ?v_91)) (or (or ?v_26 ?v_181) ?v_163)) (or (or P15 ?v_158) ?v_182)) (or (or ?v_81 ?v_143) ?v_57)) (or (or ?v_168 ?v_9) ?v_1)) (or (or ?v_182 ?v_119) ?v_42)) (or (or P38 ?v_183) ?v_145)) (or (or P22 ?v_76) ?v_40)) (or (or ?v_19 ?v_184) ?v_100)) (or (or ?v_185 ?v_154) P20)) (or (or P28 ?v_95) ?v_162)) (or (or ?v_134 ?v_12) ?v_71)) (or (or ?v_65 P35) ?v_2)) (or (or ?v_159 ?v_54) ?v_122)) (or (or ?v_20 ?v_87) ?v_120)) (or (or P1 ?v_196) P37)) (or (or ?v_109 ?v_90) ?v_110)) (or (or ?v_68 P24) ?v_186)) (or (or ?v_187 ?v_188) P16)) (or (or ?v_77 ?v_95) ?v_152)) (or (or ?v_181 ?v_44) ?v_189)) (or (or ?v_190 ?v_186) ?v_50)) (or (or P32 ?v_160) ?v_51)) (or (or ?v_40 P21) ?v_150)) (or (or ?v_191 P21) ?v_172)) (or (or P18 ?v_160) ?v_192)) (or (or ?v_124 ?v_120) P18)) (or (or ?v_92 ?v_110) ?v_14)) (or (or ?v_79 ?v_21) ?v_165)) (or (or ?v_116 ?v_44) ?v_14)) (or (or P35 ?v_140) ?v_171)) (or (or ?v_104 ?v_93) ?v_158)) (or (or ?v_41 ?v_57) ?v_156)) (or (or ?v_42 ?v_155) ?v_191)) (or (or ?v_96 ?v_93) P28)) (or (or ?v_162 ?v_76) ?v_46)) (or (or ?v_10 ?v_54) ?v_147)) (or (or ?v_96 ?v_137) ?v_93)) (or (or ?v_195 ?v_164) ?v_95)) (or (or ?v_107 ?v_184) ?v_89)) (or (or ?v_184 ?v_73) ?v_87)) (or (or ?v_139 ?v_56) ?v_17)) (or (or P13 ?v_14) ?v_7)) (or (or ?v_55 ?v_19) P39)) (or (or P27 ?v_115) ?v_24)) (or (or ?v_109 ?v_119) ?v_197)) (or (or ?v_114 ?v_106) ?v_199)) (or (or P11 P2) ?v_154)) (or (or ?v_112 ?v_175) ?v_8)) (or (or P12 ?v_90) ?v_33)) (or (or P1 P15) ?v_133)) (or (or P5 ?v_118) ?v_104)) (or (or P16 ?v_142) ?v_48)) (or (or ?v_5 P23) ?v_26)) (or (or ?v_36 ?v_23) ?v_69)) (or (or ?v_71 ?v_164) ?v_92)) (or (or ?v_180 ?v_59) ?v_25)) (or (or ?v_137 ?v_65) ?v_43)) (or (or ?v_58 P10) P31)) (or (or P20 P21) ?v_27)) (or (or ?v_108 ?v_193) ?v_188)) (or (or P10 P2) ?v_130)) (or (or ?v_90 ?v_140) P37)) (or (or P33 ?v_181) ?v_194)) (or (or ?v_195 ?v_62) ?v_50)) (or (or ?v_185 ?v_120) ?v_78)) (or (or ?v_186 P21) ?v_69)) (or (or ?v_90 ?v_161) P34)) (or (or ?v_157 ?v_3) ?v_61)) (or (or P3 ?v_146) ?v_60)) (or (or ?v_175 ?v_91) ?v_72)) (or (or ?v_139 P10) ?v_13)) (or (or P26 ?v_15) ?v_196)) (or (or ?v_91 P13) ?v_197)) (or (or ?v_97 P17) ?v_110)) (or (or P27 ?v_69) P21)) (or (or ?v_71 ?v_124) ?v_105)) (or (or ?v_85 ?v_182) ?v_36)) (or (or ?v_110 ?v_146) ?v_50)) (or (or ?v_134 ?v_128) ?v_37)) (or (or ?v_54 P2) ?v_66)) (or (or ?v_182 ?v_201) ?v_198)) (or (or ?v_58 ?v_3) ?v_177)) (or (or ?v_180 ?v_98) ?v_193)) (or (or ?v_139 ?v_67) ?v_49)) (or (or ?v_36 ?v_188) ?v_114)) (or (or P30 P24) ?v_50)) (or (or ?v_95 ?v_151) ?v_143)) (or (or ?v_112 ?v_77) ?v_140)) (or (or ?v_114 ?v_91) ?v_199)) (or (or ?v_111 ?v_187) ?v_171)) (or (or ?v_149 ?v_59) P35)) (or (or ?v_47 ?v_51) P11)) (or (or ?v_177 ?v_169) ?v_40)) (or (or ?v_168 ?v_7) ?v_75)) (or (or ?v_135 ?v_117) ?v_156)) (or (or ?v_155 ?v_44) ?v_64)) (or (or ?v_79 ?v_159) ?v_46)) (or (or ?v_31 ?v_38) ?v_46)) (or (or ?v_145 ?v_129) ?v_54)) (or (or ?v_81 P6) ?v_60)) (or (or P24 P12) ?v_161)) (or (or ?v_147 ?v_131) P25)) (or (or ?v_193 ?v_188) ?v_17)) (or (or ?v_198 ?v_190) ?v_51)) (or (or ?v_103 ?v_116) ?v_47)) (or (or ?v_142 ?v_72) ?v_109)) (or (or ?v_161 ?v_97) ?v_6)) (or (or ?v_200 ?v_149) ?v_169)) (or (or ?v_171 ?v_66) ?v_203)) (or (or ?v_75 ?v_6) ?v_80)) (or (or P37 ?v_43) ?v_200)) (or (or ?v_34 ?v_75) ?v_88)) (or (or P38 ?v_93) ?v_5)) (or (or ?v_201 ?v_99) ?v_191)) (or (or ?v_139 ?v_199) P10)) (or (or ?v_62 ?v_80) ?v_204)) (or (or ?v_138 ?v_169) ?v_88)) (or (or ?v_67 ?v_53) ?v_77)) (or (or ?v_134 P9) ?v_196)) (or (or ?v_24 ?v_63) ?v_140)) (or (or ?v_135 ?v_168) ?v_124)) (or (or ?v_158 ?v_133) P30)) (or (or P36 ?v_110) P27)) (or (or ?v_178 ?v_82) ?v_30)) (or (or ?v_99 ?v_154) P33)) (or (or ?v_135 ?v_102) ?v_191)) (or (or ?v_106 P35) ?v_137)) (or (or ?v_85 ?v_116) ?v_96)) (or (or ?v_50 P39) ?v_10)) (or (or ?v_24 ?v_35) ?v_3)) (or (or ?v_7 P32) P9)) (or (or ?v_128 ?v_74) P15)) (or (or ?v_109 ?v_127) P33)) (or (or P5 P17) ?v_112)) (or (or ?v_154 ?v_125) ?v_116)) (or (or ?v_54 ?v_181) ?v_157)) (or (or ?v_107 P25) ?v_195)) (or (or ?v_26 ?v_159) ?v_70)) (or (or ?v_188 ?v_169) P27)) (or (or ?v_11 ?v_150) ?v_151)) (or (or ?v_94 P27) ?v_104)) (or (or ?v_108 ?v_155) ?v_9)) (or (or P20 ?v_39) ?v_19)) (or (or ?v_20 ?v_24) P7)) (or (or ?v_20 ?v_147) ?v_112)) (or (or ?v_32 P37) ?v_52)) (or (or ?v_164 ?v_72) ?v_9)) (or (or ?v_9 P23) ?v_20)) (or (or ?v_4 ?v_114) ?v_54)) (or (or ?v_164 ?v_52) ?v_75)) (or (or ?v_158 P27) ?v_102)) (or (or ?v_26 ?v_112) ?v_104)) (or (or ?v_146 ?v_148) ?v_70)) (or (or P5 ?v_65) ?v_122)) (or (or ?v_96 ?v_192) ?v_171)) (or (or ?v_108 ?v_157) ?v_98)) (or (or ?v_48 ?v_134) ?v_89)) (or (or ?v_70 ?v_75) ?v_15)) (or (or P1 ?v_163) ?v_184)) (or (or ?v_117 ?v_156) ?v_182)) (or (or ?v_13 ?v_19) ?v_29)) (or (or P21 ?v_75) ?v_114)) (or (or ?v_73 ?v_146) ?v_135)) (or (or ?v_133 ?v_81) ?v_1)) (or (or ?v_100 ?v_40) ?v_78)) (or (or ?v_194 ?v_198) ?v_43)) (or (or ?v_108 ?v_62) ?v_33)) (or (or ?v_134 ?v_157) ?v_109)) (or (or ?v_136 ?v_72) ?v_152)) (or (or ?v_66 ?v_202) P3)) (or (or ?v_175 P19) ?v_20)) (or (or ?v_7 ?v_41) P28)) (or (or ?v_72 ?v_191) ?v_203)) (or (or ?v_62 ?v_165) P1)) (or (or P33 P17) ?v_60)) (or (or ?v_204 ?v_187) ?v_41)) (or (or P17 ?v_2) ?v_70)) (or (or ?v_197 ?v_183) ?v_36)) (or (or P19 ?v_175) ?v_165)) (or (or ?v_80 ?v_44) ?v_185)) (or (or P18 P29) ?v_101)) (or (or ?v_201 ?v_79) P39)) (or (or ?v_117 ?v_154) ?v_71)) (or (or ?v_161 ?v_28) ?v_169)) (or (or ?v_135 ?v_189) ?v_193)) (or (or ?v_8 P13) P11)) (or (or ?v_102 ?v_104) P18)) (or (or ?v_23 ?v_153) ?v_107)) (or (or ?v_116 P13) P5)) (or (or ?v_85 P35) ?v_77)) (or (or ?v_71 ?v_64) ?v_108)) (or (or ?v_166 ?v_203) ?v_142)) (or (or ?v_29 ?v_133) P25)) (or (or P15 ?v_55) ?v_69)) (or (or ?v_38 ?v_183) ?v_191)) (or (or ?v_189 ?v_1) ?v_132)) (or (or P17 ?v_106) ?v_74)) (or (or ?v_196 P8) ?v_181)) (or (or P4 ?v_72) ?v_123)) (or (or ?v_51 ?v_5) ?v_63)) (or (or P0 ?v_85) ?v_187)) (or (or ?v_156 ?v_205) P33)) (or (or ?v_46 ?v_99) P18)) (or (or ?v_172 ?v_15) P5)) (or (or P26 ?v_145) ?v_113)) (or (or ?v_139 ?v_64) ?v_28)) (or (or ?v_147 P2) ?v_183)) (or (or ?v_204 ?v_37) ?v_48)) (or (or ?v_46 ?v_82) P13)) (or (or ?v_16 P16) ?v_62)) (or (or ?v_76 ?v_40) ?v_8)) (or (or ?v_103 ?v_150) P27)) (or (or ?v_165 ?v_169) ?v_72)) (or (or ?v_90 ?v_130) ?v_85)) (or (or ?v_161 ?v_77) ?v_119)) (or (or P32 ?v_185) ?v_97)) (or (or ?v_112 ?v_129) ?v_71)) (or (or ?v_9 ?v_186) ?v_166)) (or (or ?v_4 ?v_200) P8)) (or (or P15 ?v_88) ?v_139)) (or (or ?v_59 P31) ?v_132)) (or (or ?v_125 ?v_147) ?v_156)) (or (or ?v_160 ?v_132) ?v_110)) (or (or ?v_39 ?v_1) ?v_173)) (or (or ?v_110 P20) ?v_96)) (or (or P26 ?v_123) ?v_206)) (or (or ?v_60 ?v_195) ?v_103)) (or (or ?v_149 ?v_69) ?v_155)) (or (or ?v_14 ?v_40) ?v_78)) (or (or ?v_205 ?v_201) ?v_104))))))))))))))))))))))))))))
(check-sat)
(exit)
